# AWU options
options
etdemand
irrigation_sfr 1 34
supplemental_well 34 1 
irrigation_well 34 1 
tabfiles 1 762
maxwells 34  
sfrlist -2 
welllist -2
wellirrlist -2
sfrirrlist -2
timeseries_sfr
timeseries_well
end
# AWU time series
time series
sfr 24 105
well 5 106
end
# AWU well list    
well list
52 762 2 39 54              #TABUNIT1 TABVAL1 WELLAY1 WELROW1 WELCOL1
52 762 2 38 51
52 762 2 38 52
52 762 2 38 53
52 762 2 38 55
52 762 2 38 56
52 762 2 38 57
52 762 2 38 58
52 762 2 38 59
52 762 2 37 51
52 762 2 37 52
52 762 2 37 53
52 762 2 37 56
52 762 2 36 51
52 762 2 36 57
52 762 2 36 58
52 762 2 36 59
52 762 2 35 53
52 762 2 35 54
52 762 2 35 56
52 762 2 35 57
52 762 2 35 58
52 762 2 35 59
52 762 2 34 49
52 762 2 34 50
52 762 2 34 51
52 762 2 34 52
52 762 2 34 53
52 762 2 34 55
52 762 2 34 56
52 762 2 34 57
52 762 2 34 58
52 762 2 34 59
52 762 2 34 54
end
# AWU stress period
stress period 1  #steady state
IRRSFR
0
IRRWELL
0
SUPWELL
0
END
stress period 2  #October 1980
IRRSFR
-1
IRRWELL
-1
SUPWELL
-1
END
stress period 3 #November 1980
IRRSFR
-1
IRRWELL
-1
SUPWELL
-1
END
stress period 4 #December 1980
IRRSFR
-1
IRRWELL
-1
SUPWELL
-1
END
stress period 5       #Jan 1981
IRRSFR
-1
IRRWELL
-1 
SUPWELL
-1
end
stress period 6     #Feb 1981
IRRSFR
-1
IRRWELL
-1
SUPWELL
-1     
END
stress period 7     #March 1981
IRRSFR
-1
IRRWELL
-1
SUPWELL
-1
END
stress period 8     #April 1981
IRRSFR
-1
IRRWELL
-1
SUPWELL
-1
END
stress period 9     #May 1981
IRRSFR
-1
IRRWELL
-1
SUPWELL
-1
END
stress period 10    #June 1981
IRRSFR
1                       NUMIRRSEGSP       
24  34                  SEGID NUMCELLSEG  IRRHRU EFF_FACT FIELD_FACT
3056 0.0 0.0286
2974 0.0 0.0286
2975 0.0 0.0286
2976 0.0 0.0286
2978 0.0 0.0286
2979 0.0 0.0286
2980 0.0 0.0286
2981 0.0 0.0286
2982 0.0 0.0286
2895 0.0 0.0286
2896 0.0 0.0286
2897 0.0 0.0286
2900 0.0 0.0286
2816 0.0 0.0286
2822 0.0 0.0286
2823 0.0 0.0286
2824 0.0 0.0286
2739 0.0 0.0286
2740 0.0 0.0286
2742 0.0 0.0286
2743 0.0 0.0286
2744 0.0 0.0286
2745 0.0 0.0286
2656 0.0 0.0286
2657 0.0 0.0286
2658 0.0 0.0286
2659 0.0 0.0286
2660 0.0 0.0286
2662 0.0 0.0286
2663 0.0 0.0286
2664 0.0 0.0286
2665 0.0 0.0286
2666 0.0 0.0286
2661 0.0 0.0286
IRRWELL
34                  NUMWELLS
1 1                 IRRWELLLID NUMCELLWELL
3056 0 1           IRRHRU EFF_FACT FIELD_FACT
2 1 
2974 0 1
3 1 
2975 0 1
4 1 
2976 0 1
5 1 
2978 0 1
6 1 
2979 0 1
7 1 
2980 0 1
8 1 
2981 0 1
9 1 
2982 0 1
10 1 
2895 0 1
11 1 
2896 0 1
12 1 
2897 0 1
13 1 
2900 0 1
14 1 
2816 0 1
15 1 
2822 0 1
16 1 
2823 0 1
17 1 
2824 0 1
18 1 
2739 0 1
19 1 
2740 0 1
20 1 
2742 0 1
21 1 
2743 0 1
22 1 
2744 0 1
23 1 
2745 0 1
24 1 
2656 0 1
25 1 
2657 0 1
26 1 
2658 0 1
27 1 
2659 0 1
28 1 
2660 0 1
29 1
2662 0 1
30 1 
2663 0 1
31 1 
2664 0 1
32 1 
2665 0 1
33 1 
2666 0 1
34 1 
2661 0 1         
SUPWELL
34                     NUMSUPWELLLSP      
1 1                    SUPWELLLNUM   NUMSEGWELL
24 1.0                 SEGWELLID    PCTSUP  
2 1
24 1.0
3 1
24 1.0
4 1
24 1.0
5 1
24 1.0
6 1
24 1.0
7 1
24 1.0
8 1
24 1.0
9 1
24 1.0
10 1
24 1.0
11 1
24 1.0
12 1
24 1.0
13 1
24 1.0
14 1
24 1.0
15 1
24 1.0
16 1
24 1.0
17 1
24 1.0
18 1
24 1.0
19 1
24 1.0
20 1
24 1.0
21 1
24 1.0
22 1
24 1.0
23 1
24 1.0
24 1
24 1.0
25 1
24 1.0
26 1
24 1.0
27 1
24 1.0
28 1
24 1.0
29 1
24 1.0
30 1
24 1.0
31 1
24 1.0
32 1
24 1.0
33 1
24 1.0
34 1
24 1.0
END
stress period 11    #July 1981
IRRSFR
-1
IRRWELL
-1
SUPWELL
-1
END
stress period 12    #August 1981
IRRSFR
-1
IRRWELL
-1
SUPWELL
-1
END
stress period 13    #Sept 1981
IRRSFR
0
IRRWELL
0
SUPWELL
0
END 
stress period 14    #Oct 1981
IRRSFR
-1
IRRWELL
-1
SUPWELL
-1
END
stress period 15    #Nov 1981
IRRSFR
-1
IRRWELL
-1
SUPWELL
-1
END
stress period 16    #Dec 1981
IRRSFR
-1
IRRWELL
-1
SUPWELL
-1
END
stress period 17    #Jan 1982
IRRSFR
-1
IRRWELL
-1
SUPWELL
-1
end
stress period 18    #Feb 1982
IRRSFR
-1
IRRWELL
-1
SUPWELL
-1
END
stress period 19    #March 1982
IRRSFR
-1
IRRWELL
-1
SUPWELL
-1
END
stress period 20    #April 1982
IRRSFR
-1
IRRWELL
-1
SUPWELL
-1
END
stress period 21    #May 1982
IRRSFR
-1
IRRWELL
-1
SUPWELL
-1
END
stress period 22    #June 1982
IRRSFR
1                       NUMIRRSEGSP       
24  34                  SEGID NUMCELLSEG  IRRHRU EFF_FACT FIELD_FACT
3056 0.0 0.0286
2974 0.0 0.0286
2975 0.0 0.0286
2976 0.0 0.0286
2978 0.0 0.0286
2979 0.0 0.0286
2980 0.0 0.0286
2981 0.0 0.0286
2982 0.0 0.0286
2895 0.0 0.0286
2896 0.0 0.0286
2897 0.0 0.0286
2900 0.0 0.0286
2816 0.0 0.0286
2822 0.0 0.0286
2823 0.0 0.0286
2824 0.0 0.0286
2739 0.0 0.0286
2740 0.0 0.0286
2742 0.0 0.0286
2743 0.0 0.0286
2744 0.0 0.0286
2745 0.0 0.0286
2656 0.0 0.0286
2657 0.0 0.0286
2658 0.0 0.0286
2659 0.0 0.0286
2660 0.0 0.0286
2662 0.0 0.0286
2663 0.0 0.0286
2664 0.0 0.0286
2665 0.0 0.0286
2666 0.0 0.0286
2661 0.0 0.0286
IRRWELL
34                  NUMWELLS
1 1                 IRRWELLLID NUMCELLWELL
3056 0 1           IRRHRU EFF_FACT FIELD_FACT
2 1 
2974 0 1
3 1 
2975 0 1
4 1 
2976 0 1
5 1 
2978 0 1
6 1 
2979 0 1
7 1 
2980 0 1
8 1 
2981 0 1
9 1 
2982 0 1
10 1 
2895 0 1
11 1 
2896 0 1
12 1 
2897 0 1
13 1 
2900 0 1
14 1 
2816 0 1
15 1 
2822 0 1
16 1 
2823 0 1
17 1 
2824 0 1
18 1 
2739 0 1
19 1 
2740 0 1
20 1 
2742 0 1
21 1 
2743 0 1
22 1 
2744 0 1
23 1 
2745 0 1
24 1 
2656 0 1
25 1 
2657 0 1
26 1 
2658 0 1
27 1 
2659 0 1
28 1 
2660 0 1
29 1
2662 0 1
30 1 
2663 0 1
31 1 
2664 0 1
32 1 
2665 0 1
33 1 
2666 0 1
34 1 
2661 0 1         
SUPWELL
34                     NUMSUPWELLLSP      
1 1                    SUPWELLLNUM   NUMSEGWELL
24 1.0                 SEGWELLID    PCTSUP  
2 1
24 1.0
3 1
24 1.0
4 1
24 1.0
5 1
24 1.0
6 1
24 1.0
7 1
24 1.0
8 1
24 1.0
9 1
24 1.0
10 1
24 1.0
11 1
24 1.0
12 1
24 1.0
13 1
24 1.0
14 1
24 1.0
15 1
24 1.0
16 1
24 1.0
17 1
24 1.0
18 1
24 1.0
19 1
24 1.0
20 1
24 1.0
21 1
24 1.0
22 1
24 1.0
23 1
24 1.0
24 1
24 1.0
25 1
24 1.0
26 1
24 1.0
27 1
24 1.0
28 1
24 1.0
29 1
24 1.0
30 1
24 1.0
31 1
24 1.0
32 1
24 1.0
33 1
24 1.0
34 1
24 1.0
END
stress period 23    #July 1982
IRRSFR
-1
IRRWELL
-1
SUPWELL
-1
END
stress period 24    #Aug 1982
IRRSFR
-1
IRRWELL
-1
SUPWELL
-1
END
stress period 25    #Sept 1982
IRRSFR
0
IRRWELL
0
SUPWELL
0
END
stress period 26    #Oct 1982
IRRSFR
-1
IRRWELL
-1
SUPWELL
-1
END